p tdp 38 69
13 32
9 21
12 27
5 19
10 36
21 30
1 28
2 32
7 24
3 12
23 37
14 29
6 31
19 27
4 17
28 33
13 38
10 24
8 11
5 25
2 20
5 17
11 34
14 38
16 26
11 31
2 16
18 21
4 24
33 35
15 24
17 35
11 37
18 32
22 35
4 31
27 38
7 8
16 29
1 17
19 36
27 34
16 23
11 23
16 35
24 33
6 28
22 24
6 15
2 18
27 35
14 27
18 29
9 37
6 11
14 17
5 31
8 9
6 9
19 32
2 35
13 27
2 9
4 34
24 26
20 31
14 36
11 21
21 31
